\ Model rankability_hillside_count
\ LP format - for model browsing. Use MPS format to capture full model detail.
Minimize
  0 x(0,0) + 16 x(0,1) + 2 x(0,2) + 6 x(0,3) + 2 x(0,4) + 4 x(0,5)
   + 6 x(0,6) + 5 x(0,7) + 5 x(0,8) + 3 x(0,9) + 7 x(0,10) + 2 x(0,11)
   + 4 x(0,12) + 3 x(0,13) + 2 x(0,14) + 2 x(0,15) + 16 x(1,0) + 0 x(1,1)
   + 15 x(1,2) + 11 x(1,3) + 15 x(1,4) + 17 x(1,5) + 16 x(1,6) + 19 x(1,7)
   + 17 x(1,8) + 17 x(1,9) + 20 x(1,10) + 16 x(1,11) + 17 x(1,12)
   + 16 x(1,13) + 16 x(1,14) + 16 x(1,15) + 4 x(2,0) + 17 x(2,1) + 0 x(2,2)
   + 7 x(2,3) + 2 x(2,4) + 6 x(2,5) + 8 x(2,6) + 7 x(2,7) + 7 x(2,8)
   + 5 x(2,9) + 9 x(2,10) + 3 x(2,11) + 4 x(2,12) + 5 x(2,13) + 3 x(2,14)
   + 4 x(2,15) + 8 x(3,0) + 21 x(3,1) + 9 x(3,2) + 0 x(3,3) + 9 x(3,4)
   + 11 x(3,5) + 12 x(3,6) + 11 x(3,7) + 12 x(3,8) + 9 x(3,9) + 13 x(3,10)
   + 8 x(3,11) + 11 x(3,12) + 10 x(3,13) + 9 x(3,14) + 8 x(3,15) + 4 x(4,0)
   + 17 x(4,1) + 5 x(4,2) + 7 x(4,3) + 0 x(4,4) + 6 x(4,5) + 8 x(4,6)
   + 7 x(4,7) + 7 x(4,8) + 5 x(4,9) + 9 x(4,10) + 3 x(4,11) + 4 x(4,12)
   + 5 x(4,13) + 4 x(4,14) + 4 x(4,15) + 4 x(5,0) + 14 x(5,1) + 6 x(5,2)
   + 9 x(5,3) + 6 x(5,4) + 0 x(5,5) + 4 x(5,6) + 8 x(5,7) + 6 x(5,8)
   + 5 x(5,9) + 8 x(5,10) + 6 x(5,11) + 6 x(5,12) + 5 x(5,13) + 5 x(5,14)
   + 4 x(5,15) + 6 x(6,0) + 15 x(6,1) + 8 x(6,2) + 10 x(6,3) + 8 x(6,4)
   + 10 x(6,5) + 0 x(6,6) + 10 x(6,7) + 8 x(6,8) + 8 x(6,9) + 12 x(6,10)
   + 8 x(6,11) + 9 x(6,12) + 9 x(6,13) + 8 x(6,14) + 6 x(6,15) + 3 x(7,0)
   + 13 x(7,1) + 5 x(7,2) + 9 x(7,3) + 5 x(7,4) + 2 x(7,5) + 4 x(7,6)
   + 0 x(7,7) + 3 x(7,8) + 5 x(7,9) + 6 x(7,10) + 5 x(7,11) + 6 x(7,12)
   + 3 x(7,13) + 3 x(7,14) + 3 x(7,15) + 5 x(8,0) + 15 x(8,1) + 7 x(8,2)
   + 8 x(8,3) + 7 x(8,4) + 6 x(8,5) + 8 x(8,6) + 9 x(8,7) + 0 x(8,8)
   + 7 x(8,9) + 11 x(8,10) + 7 x(8,11) + 6 x(8,12) + 4 x(8,13) + 5 x(8,14)
   + 5 x(8,15) + x(9,0) + 15 x(9,1) + 3 x(9,2) + 5 x(9,3) + 3 x(9,4)
   + 5 x(9,5) + 6 x(9,6) + 5 x(9,7) + 3 x(9,8) + 0 x(9,9) + 6 x(9,10)
   + 3 x(9,11) + 2 x(9,12) + x(9,13) + 3 x(9,14) + x(9,15) + 5 x(10,0)
   + 12 x(10,1) + 5 x(10,2) + 9 x(10,3) + 5 x(10,4) + 8 x(10,5) + 6 x(10,6)
   + 10 x(10,7) + 9 x(10,8) + 7 x(10,9) + 0 x(10,10) + 3 x(10,11)
   + 6 x(10,12) + 7 x(10,13) + 5 x(10,14) + 6 x(10,15) + 4 x(11,0)
   + 16 x(11,1) + 4 x(11,2) + 8 x(11,3) + 4 x(11,4) + 6 x(11,5) + 8 x(11,6)
   + 7 x(11,7) + 7 x(11,8) + 5 x(11,9) + 9 x(11,10) + 0 x(11,11)
   + 5 x(11,12) + 5 x(11,13) + 5 x(11,14) + 4 x(11,15) + 4 x(12,0)
   + 15 x(12,1) + 6 x(12,2) + 5 x(12,3) + 6 x(12,4) + 7 x(12,5) + 9 x(12,6)
   + 8 x(12,7) + 8 x(12,8) + 6 x(12,9) + 10 x(12,10) + 4 x(12,11)
   + 0 x(12,12) + 5 x(12,13) + 5 x(12,14) + 5 x(12,15) + 3 x(13,0)
   + 16 x(13,1) + 5 x(13,2) + 6 x(13,3) + 5 x(13,4) + 5 x(13,5) + 7 x(13,6)
   + 7 x(13,7) + 5 x(13,8) + 5 x(13,9) + 9 x(13,10) + 5 x(13,11)
   + 5 x(13,12) + 0 x(13,13) + 3 x(13,14) + 3 x(13,15) + 4 x(14,0)
   + 16 x(14,1) + 4 x(14,2) + 9 x(14,3) + 3 x(14,4) + 5 x(14,5) + 8 x(14,6)
   + 7 x(14,7) + 7 x(14,8) + 5 x(14,9) + 9 x(14,10) + 3 x(14,11)
   + 5 x(14,12) + 5 x(14,13) + 0 x(14,14) + 4 x(14,15) + 16 x(15,1)
   + 2 x(15,2) + 6 x(15,3) + 2 x(15,4) + 4 x(15,5) + 6 x(15,6) + 5 x(15,7)
   + 5 x(15,8) + 3 x(15,9) + 6 x(15,10) + 2 x(15,11) + 3 x(15,12)
   + 3 x(15,13) + 2 x(15,14) + 0 x(15,15)
Subject To
 R0: x(0,1) + x(1,0) = 1
 R1: x(0,2) + x(2,0) = 1
 R2: x(0,3) + x(3,0) = 1
 R3: x(0,4) + x(4,0) = 1
 R4: x(0,5) + x(5,0) = 1
 R5: x(0,6) + x(6,0) = 1
 R6: x(0,7) + x(7,0) = 1
 R7: x(0,8) + x(8,0) = 1
 R8: x(0,9) + x(9,0) = 1
 R9: x(0,10) + x(10,0) = 1
 R10: x(0,11) + x(11,0) = 1
 R11: x(0,12) + x(12,0) = 1
 R12: x(0,13) + x(13,0) = 1
 R13: x(0,14) + x(14,0) = 1
 R14: x(0,15) + x(15,0) = 1
 R15: x(0,1) + x(1,0) = 1
 R16: x(1,2) + x(2,1) = 1
 R17: x(1,3) + x(3,1) = 1
 R18: x(1,4) + x(4,1) = 1
 R19: x(1,5) + x(5,1) = 1
 R20: x(1,6) + x(6,1) = 1
 R21: x(1,7) + x(7,1) = 1
 R22: x(1,8) + x(8,1) = 1
 R23: x(1,9) + x(9,1) = 1
 R24: x(1,10) + x(10,1) = 1
 R25: x(1,11) + x(11,1) = 1
 R26: x(1,12) + x(12,1) = 1
 R27: x(1,13) + x(13,1) = 1
 R28: x(1,14) + x(14,1) = 1
 R29: x(1,15) + x(15,1) = 1
 R30: x(0,2) + x(2,0) = 1
 R31: x(1,2) + x(2,1) = 1
 R32: x(2,3) + x(3,2) = 1
 R33: x(2,4) + x(4,2) = 1
 R34: x(2,5) + x(5,2) = 1
 R35: x(2,6) + x(6,2) = 1
 R36: x(2,7) + x(7,2) = 1
 R37: x(2,8) + x(8,2) = 1
 R38: x(2,9) + x(9,2) = 1
 R39: x(2,10) + x(10,2) = 1
 R40: x(2,11) + x(11,2) = 1
 R41: x(2,12) + x(12,2) = 1
 R42: x(2,13) + x(13,2) = 1
 R43: x(2,14) + x(14,2) = 1
 R44: x(2,15) + x(15,2) = 1
 R45: x(0,3) + x(3,0) = 1
 R46: x(1,3) + x(3,1) = 1
 R47: x(2,3) + x(3,2) = 1
 R48: x(3,4) + x(4,3) = 1
 R49: x(3,5) + x(5,3) = 1
 R50: x(3,6) + x(6,3) = 1
 R51: x(3,7) + x(7,3) = 1
 R52: x(3,8) + x(8,3) = 1
 R53: x(3,9) + x(9,3) = 1
 R54: x(3,10) + x(10,3) = 1
 R55: x(3,11) + x(11,3) = 1
 R56: x(3,12) + x(12,3) = 1
 R57: x(3,13) + x(13,3) = 1
 R58: x(3,14) + x(14,3) = 1
 R59: x(3,15) + x(15,3) = 1
 R60: x(0,4) + x(4,0) = 1
 R61: x(1,4) + x(4,1) = 1
 R62: x(2,4) + x(4,2) = 1
 R63: x(3,4) + x(4,3) = 1
 R64: x(4,5) + x(5,4) = 1
 R65: x(4,6) + x(6,4) = 1
 R66: x(4,7) + x(7,4) = 1
 R67: x(4,8) + x(8,4) = 1
 R68: x(4,9) + x(9,4) = 1
 R69: x(4,10) + x(10,4) = 1
 R70: x(4,11) + x(11,4) = 1
 R71: x(4,12) + x(12,4) = 1
 R72: x(4,13) + x(13,4) = 1
 R73: x(4,14) + x(14,4) = 1
 R74: x(4,15) + x(15,4) = 1
 R75: x(0,5) + x(5,0) = 1
 R76: x(1,5) + x(5,1) = 1
 R77: x(2,5) + x(5,2) = 1
 R78: x(3,5) + x(5,3) = 1
 R79: x(4,5) + x(5,4) = 1
 R80: x(5,6) + x(6,5) = 1
 R81: x(5,7) + x(7,5) = 1
 R82: x(5,8) + x(8,5) = 1
 R83: x(5,9) + x(9,5) = 1
 R84: x(5,10) + x(10,5) = 1
 R85: x(5,11) + x(11,5) = 1
 R86: x(5,12) + x(12,5) = 1
 R87: x(5,13) + x(13,5) = 1
 R88: x(5,14) + x(14,5) = 1
 R89: x(5,15) + x(15,5) = 1
 R90: x(0,6) + x(6,0) = 1
 R91: x(1,6) + x(6,1) = 1
 R92: x(2,6) + x(6,2) = 1
 R93: x(3,6) + x(6,3) = 1
 R94: x(4,6) + x(6,4) = 1
 R95: x(5,6) + x(6,5) = 1
 R96: x(6,7) + x(7,6) = 1
 R97: x(6,8) + x(8,6) = 1
 R98: x(6,9) + x(9,6) = 1
 R99: x(6,10) + x(10,6) = 1
 R100: x(6,11) + x(11,6) = 1
 R101: x(6,12) + x(12,6) = 1
 R102: x(6,13) + x(13,6) = 1
 R103: x(6,14) + x(14,6) = 1
 R104: x(6,15) + x(15,6) = 1
 R105: x(0,7) + x(7,0) = 1
 R106: x(1,7) + x(7,1) = 1
 R107: x(2,7) + x(7,2) = 1
 R108: x(3,7) + x(7,3) = 1
 R109: x(4,7) + x(7,4) = 1
 R110: x(5,7) + x(7,5) = 1
 R111: x(6,7) + x(7,6) = 1
 R112: x(7,8) + x(8,7) = 1
 R113: x(7,9) + x(9,7) = 1
 R114: x(7,10) + x(10,7) = 1
 R115: x(7,11) + x(11,7) = 1
 R116: x(7,12) + x(12,7) = 1
 R117: x(7,13) + x(13,7) = 1
 R118: x(7,14) + x(14,7) = 1
 R119: x(7,15) + x(15,7) = 1
 R120: x(0,8) + x(8,0) = 1
 R121: x(1,8) + x(8,1) = 1
 R122: x(2,8) + x(8,2) = 1
 R123: x(3,8) + x(8,3) = 1
 R124: x(4,8) + x(8,4) = 1
 R125: x(5,8) + x(8,5) = 1
 R126: x(6,8) + x(8,6) = 1
 R127: x(7,8) + x(8,7) = 1
 R128: x(8,9) + x(9,8) = 1
 R129: x(8,10) + x(10,8) = 1
 R130: x(8,11) + x(11,8) = 1
 R131: x(8,12) + x(12,8) = 1
 R132: x(8,13) + x(13,8) = 1
 R133: x(8,14) + x(14,8) = 1
 R134: x(8,15) + x(15,8) = 1
 R135: x(0,9) + x(9,0) = 1
 R136: x(1,9) + x(9,1) = 1
 R137: x(2,9) + x(9,2) = 1
 R138: x(3,9) + x(9,3) = 1
 R139: x(4,9) + x(9,4) = 1
 R140: x(5,9) + x(9,5) = 1
 R141: x(6,9) + x(9,6) = 1
 R142: x(7,9) + x(9,7) = 1
 R143: x(8,9) + x(9,8) = 1
 R144: x(9,10) + x(10,9) = 1
 R145: x(9,11) + x(11,9) = 1
 R146: x(9,12) + x(12,9) = 1
 R147: x(9,13) + x(13,9) = 1
 R148: x(9,14) + x(14,9) = 1
 R149: x(9,15) + x(15,9) = 1
 R150: x(0,10) + x(10,0) = 1
 R151: x(1,10) + x(10,1) = 1
 R152: x(2,10) + x(10,2) = 1
 R153: x(3,10) + x(10,3) = 1
 R154: x(4,10) + x(10,4) = 1
 R155: x(5,10) + x(10,5) = 1
 R156: x(6,10) + x(10,6) = 1
 R157: x(7,10) + x(10,7) = 1
 R158: x(8,10) + x(10,8) = 1
 R159: x(9,10) + x(10,9) = 1
 R160: x(10,11) + x(11,10) = 1
 R161: x(10,12) + x(12,10) = 1
 R162: x(10,13) + x(13,10) = 1
 R163: x(10,14) + x(14,10) = 1
 R164: x(10,15) + x(15,10) = 1
 R165: x(0,11) + x(11,0) = 1
 R166: x(1,11) + x(11,1) = 1
 R167: x(2,11) + x(11,2) = 1
 R168: x(3,11) + x(11,3) = 1
 R169: x(4,11) + x(11,4) = 1
 R170: x(5,11) + x(11,5) = 1
 R171: x(6,11) + x(11,6) = 1
 R172: x(7,11) + x(11,7) = 1
 R173: x(8,11) + x(11,8) = 1
 R174: x(9,11) + x(11,9) = 1
 R175: x(10,11) + x(11,10) = 1
 R176: x(11,12) + x(12,11) = 1
 R177: x(11,13) + x(13,11) = 1
 R178: x(11,14) + x(14,11) = 1
 R179: x(11,15) + x(15,11) = 1
 R180: x(0,12) + x(12,0) = 1
 R181: x(1,12) + x(12,1) = 1
 R182: x(2,12) + x(12,2) = 1
 R183: x(3,12) + x(12,3) = 1
 R184: x(4,12) + x(12,4) = 1
 R185: x(5,12) + x(12,5) = 1
 R186: x(6,12) + x(12,6) = 1
 R187: x(7,12) + x(12,7) = 1
 R188: x(8,12) + x(12,8) = 1
 R189: x(9,12) + x(12,9) = 1
 R190: x(10,12) + x(12,10) = 1
 R191: x(11,12) + x(12,11) = 1
 R192: x(12,13) + x(13,12) = 1
 R193: x(12,14) + x(14,12) = 1
 R194: x(12,15) + x(15,12) = 1
 R195: x(0,13) + x(13,0) = 1
 R196: x(1,13) + x(13,1) = 1
 R197: x(2,13) + x(13,2) = 1
 R198: x(3,13) + x(13,3) = 1
 R199: x(4,13) + x(13,4) = 1
 R200: x(5,13) + x(13,5) = 1
 R201: x(6,13) + x(13,6) = 1
 R202: x(7,13) + x(13,7) = 1
 R203: x(8,13) + x(13,8) = 1
 R204: x(9,13) + x(13,9) = 1
 R205: x(10,13) + x(13,10) = 1
 R206: x(11,13) + x(13,11) = 1
 R207: x(12,13) + x(13,12) = 1
 R208: x(13,14) + x(14,13) = 1
 R209: x(13,15) + x(15,13) = 1
 R210: x(0,14) + x(14,0) = 1
 R211: x(1,14) + x(14,1) = 1
 R212: x(2,14) + x(14,2) = 1
 R213: x(3,14) + x(14,3) = 1
 R214: x(4,14) + x(14,4) = 1
 R215: x(5,14) + x(14,5) = 1
 R216: x(6,14) + x(14,6) = 1
 R217: x(7,14) + x(14,7) = 1
 R218: x(8,14) + x(14,8) = 1
 R219: x(9,14) + x(14,9) = 1
 R220: x(10,14) + x(14,10) = 1
 R221: x(11,14) + x(14,11) = 1
 R222: x(12,14) + x(14,12) = 1
 R223: x(13,14) + x(14,13) = 1
 R224: x(14,15) + x(15,14) = 1
 R225: x(0,15) + x(15,0) = 1
 R226: x(1,15) + x(15,1) = 1
 R227: x(2,15) + x(15,2) = 1
 R228: x(3,15) + x(15,3) = 1
 R229: x(4,15) + x(15,4) = 1
 R230: x(5,15) + x(15,5) = 1
 R231: x(6,15) + x(15,6) = 1
 R232: x(7,15) + x(15,7) = 1
 R233: x(8,15) + x(15,8) = 1
 R234: x(9,15) + x(15,9) = 1
 R235: x(10,15) + x(15,10) = 1
 R236: x(11,15) + x(15,11) = 1
 R237: x(12,15) + x(15,12) = 1
 R238: x(13,15) + x(15,13) = 1
 R239: x(14,15) + x(15,14) = 1
Bounds
 x(0,0) <= 1
 x(0,1) <= 1
 x(0,2) <= 1
 x(0,3) <= 1
 x(0,4) <= 1
 x(0,5) <= 1
 x(0,6) <= 1
 x(0,7) <= 1
 x(0,8) <= 1
 x(0,9) <= 1
 x(0,10) <= 1
 x(0,11) <= 1
 x(0,12) <= 1
 x(0,13) <= 1
 x(0,14) <= 1
 x(0,15) <= 1
 x(1,0) <= 1
 x(1,1) <= 1
 x(1,2) <= 1
 x(1,3) <= 1
 x(1,4) <= 1
 x(1,5) <= 1
 x(1,6) <= 1
 x(1,7) <= 1
 x(1,8) <= 1
 x(1,9) <= 1
 x(1,10) <= 1
 x(1,11) <= 1
 x(1,12) <= 1
 x(1,13) <= 1
 x(1,14) <= 1
 x(1,15) <= 1
 x(2,0) <= 1
 x(2,1) <= 1
 x(2,2) <= 1
 x(2,3) <= 1
 x(2,4) <= 1
 x(2,5) <= 1
 x(2,6) <= 1
 x(2,7) <= 1
 x(2,8) <= 1
 x(2,9) <= 1
 x(2,10) <= 1
 x(2,11) <= 1
 x(2,12) <= 1
 x(2,13) <= 1
 x(2,14) <= 1
 x(2,15) <= 1
 x(3,0) <= 1
 x(3,1) <= 1
 x(3,2) <= 1
 x(3,3) <= 1
 x(3,4) <= 1
 x(3,5) <= 1
 x(3,6) <= 1
 x(3,7) <= 1
 x(3,8) <= 1
 x(3,9) <= 1
 x(3,10) <= 1
 x(3,11) <= 1
 x(3,12) <= 1
 x(3,13) <= 1
 x(3,14) <= 1
 x(3,15) <= 1
 x(4,0) <= 1
 x(4,1) <= 1
 x(4,2) <= 1
 x(4,3) <= 1
 x(4,4) <= 1
 x(4,5) <= 1
 x(4,6) <= 1
 x(4,7) <= 1
 x(4,8) <= 1
 x(4,9) <= 1
 x(4,10) <= 1
 x(4,11) <= 1
 x(4,12) <= 1
 x(4,13) <= 1
 x(4,14) <= 1
 x(4,15) <= 1
 x(5,0) <= 1
 x(5,1) <= 1
 x(5,2) <= 1
 x(5,3) <= 1
 x(5,4) <= 1
 x(5,5) <= 1
 x(5,6) <= 1
 x(5,7) <= 1
 x(5,8) <= 1
 x(5,9) <= 1
 x(5,10) <= 1
 x(5,11) <= 1
 x(5,12) <= 1
 x(5,13) <= 1
 x(5,14) <= 1
 x(5,15) <= 1
 x(6,0) <= 1
 x(6,1) <= 1
 x(6,2) <= 1
 x(6,3) <= 1
 x(6,4) <= 1
 x(6,5) <= 1
 x(6,6) <= 1
 x(6,7) <= 1
 x(6,8) <= 1
 x(6,9) <= 1
 x(6,10) <= 1
 x(6,11) <= 1
 x(6,12) <= 1
 x(6,13) <= 1
 x(6,14) <= 1
 x(6,15) <= 1
 x(7,0) <= 1
 x(7,1) <= 1
 x(7,2) <= 1
 x(7,3) <= 1
 x(7,4) <= 1
 x(7,5) <= 1
 x(7,6) <= 1
 x(7,7) <= 1
 x(7,8) <= 1
 x(7,9) <= 1
 x(7,10) <= 1
 x(7,11) <= 1
 x(7,12) <= 1
 x(7,13) <= 1
 x(7,14) <= 1
 x(7,15) <= 1
 x(8,0) <= 1
 x(8,1) <= 1
 x(8,2) <= 1
 x(8,3) <= 1
 x(8,4) <= 1
 x(8,5) <= 1
 x(8,6) <= 1
 x(8,7) <= 1
 x(8,8) <= 1
 x(8,9) <= 1
 x(8,10) <= 1
 x(8,11) <= 1
 x(8,12) <= 1
 x(8,13) <= 1
 x(8,14) <= 1
 x(8,15) <= 1
 x(9,0) <= 1
 x(9,1) <= 1
 x(9,2) <= 1
 x(9,3) <= 1
 x(9,4) <= 1
 x(9,5) <= 1
 x(9,6) <= 1
 x(9,7) <= 1
 x(9,8) <= 1
 x(9,9) <= 1
 x(9,10) <= 1
 x(9,11) <= 1
 x(9,12) <= 1
 x(9,13) <= 1
 x(9,14) <= 1
 x(9,15) <= 1
 x(10,0) <= 1
 x(10,1) <= 1
 x(10,2) <= 1
 x(10,3) <= 1
 x(10,4) <= 1
 x(10,5) <= 1
 x(10,6) <= 1
 x(10,7) <= 1
 x(10,8) <= 1
 x(10,9) <= 1
 x(10,10) <= 1
 x(10,11) <= 1
 x(10,12) <= 1
 x(10,13) <= 1
 x(10,14) <= 1
 x(10,15) <= 1
 x(11,0) <= 1
 x(11,1) <= 1
 x(11,2) <= 1
 x(11,3) <= 1
 x(11,4) <= 1
 x(11,5) <= 1
 x(11,6) <= 1
 x(11,7) <= 1
 x(11,8) <= 1
 x(11,9) <= 1
 x(11,10) <= 1
 x(11,11) <= 1
 x(11,12) <= 1
 x(11,13) <= 1
 x(11,14) <= 1
 x(11,15) <= 1
 x(12,0) <= 1
 x(12,1) <= 1
 x(12,2) <= 1
 x(12,3) <= 1
 x(12,4) <= 1
 x(12,5) <= 1
 x(12,6) <= 1
 x(12,7) <= 1
 x(12,8) <= 1
 x(12,9) <= 1
 x(12,10) <= 1
 x(12,11) <= 1
 x(12,12) <= 1
 x(12,13) <= 1
 x(12,14) <= 1
 x(12,15) <= 1
 x(13,0) <= 1
 x(13,1) <= 1
 x(13,2) <= 1
 x(13,3) <= 1
 x(13,4) <= 1
 x(13,5) <= 1
 x(13,6) <= 1
 x(13,7) <= 1
 x(13,8) <= 1
 x(13,9) <= 1
 x(13,10) <= 1
 x(13,11) <= 1
 x(13,12) <= 1
 x(13,13) <= 1
 x(13,14) <= 1
 x(13,15) <= 1
 x(14,0) <= 1
 x(14,1) <= 1
 x(14,2) <= 1
 x(14,3) <= 1
 x(14,4) <= 1
 x(14,5) <= 1
 x(14,6) <= 1
 x(14,7) <= 1
 x(14,8) <= 1
 x(14,9) <= 1
 x(14,10) <= 1
 x(14,11) <= 1
 x(14,12) <= 1
 x(14,13) <= 1
 x(14,14) <= 1
 x(14,15) <= 1
 x(15,0) <= 1
 x(15,1) <= 1
 x(15,2) <= 1
 x(15,3) <= 1
 x(15,4) <= 1
 x(15,5) <= 1
 x(15,6) <= 1
 x(15,7) <= 1
 x(15,8) <= 1
 x(15,9) <= 1
 x(15,10) <= 1
 x(15,11) <= 1
 x(15,12) <= 1
 x(15,13) <= 1
 x(15,14) <= 1
 x(15,15) <= 1
End
